\ Generated by MPModelProtoExporter
\   Name             : SCIP
\   Format           : Free
\   Constraints      : 30
\   Variables        : 210
\     Binary         : 210
\     Integer        : 0
\     Continuous     : 0
Minimize
 Obj: +8 x[0,0] +85 x[0,1] +5 x[0,2] +49 x[0,3] +42 x[0,4] +8 x[0,5] +87 x[0,6] +93 x[0,7] +62 x[0,8] +84 x[0,9] +9 x[1,0] +4 x[1,2] +65 x[1,3] +59 x[1,4] +77 x[1,5] +26 x[1,6] +68 x[1,7] +91 x[1,8] +25 x[1,9] +35 x[2,0] +21 x[2,1] +65 x[2,2] +94 x[2,3] +46 x[2,4] +29 x[2,5] +56 x[2,6] +47 x[2,7] +46 x[2,8] +75 x[2,9] +60 x[3,0] +80 x[3,1] +82 x[3,2] +46 x[3,3] +16 x[3,4] +18 x[3,5] +78 x[3,6] +31 x[3,7] +45 x[3,8] +88 x[3,9] +63 x[4,0] +44 x[4,1] +67 x[4,2] +47 x[4,3] +62 x[4,4] +74 x[4,5] +32 x[4,6] +5 x[4,7] +91 x[4,8] +44 x[4,9] +96 x[5,0] +72 x[5,1] +38 x[5,2] +51 x[5,3] +26 x[5,4] +25 x[5,5] +34 x[5,6] +12 x[5,7] +97 x[5,8] +71 x[5,9] +51 x[6,0] +36 x[6,1] +34 x[6,2] +53 x[6,3] +71 x[6,4] +8 x[6,6] +21 x[6,7] +12 x[6,8] +95 x[6,9] +81 x[7,0] +66 x[7,1] +17 x[7,2] +78 x[7,3] +70 x[7,4] +98 x[7,5] +28 x[7,6] +37 x[7,7] +59 x[7,8] +6 x[7,9] +10 x[8,0] +62 x[8,1] +2 x[8,2] +26 x[8,3] +71 x[8,5] +78 x[8,6] +26 x[8,7] +74 x[8,8] +41 x[8,9] +95 x[9,0] +61 x[9,1] +92 x[9,2] +44 x[9,3] +54 x[9,4] +72 x[9,5] +39 x[9,6] +83 x[9,7] +25 x[9,8] +26 x[9,9] +69 x[10,0] +79 x[10,1] +98 x[10,2] +17 x[10,3] +43 x[10,4] +53 x[10,5] +87 x[10,6] +88 x[10,7] +99 x[10,8] +9 x[10,9] +38 x[11,0] +29 x[11,1] +95 x[11,2] +10 x[11,3] +41 x[11,4] +75 x[11,5] +28 x[11,6] +99 x[11,7] +51 x[11,8] +93 x[11,9] +6 x[12,0] +8 x[12,1] +85 x[12,2] +45 x[12,3] +25 x[12,4] +65 x[12,5] +20 x[12,6] +67 x[12,7] +94 x[12,8] +82 x[12,9] +42 x[13,0] +89 x[13,1] +91 x[13,2] +87 x[13,3] +2 x[13,4] +92 x[13,5] +54 x[13,6] +37 x[13,7] +69 x[13,8] +84 x[13,9] +41 x[14,0] +17 x[14,1] +21 x[14,2] +34 x[14,3] +99 x[14,4] +22 x[14,5] +77 x[14,6] +90 x[14,7] +50 x[14,8] +73 x[14,9] +80 x[15,0] +82 x[15,1] +63 x[15,2] +4 x[15,3] +82 x[15,4] +84 x[15,5] +75 x[15,6] +38 x[15,7] +87 x[15,8] +79 x[15,9] +86 x[16,0] +31 x[16,1] +62 x[16,2] +49 x[16,3] +39 x[16,4] +46 x[16,5] +5 x[16,6] +3 x[16,7] +55 x[16,8] +95 x[16,9] +46 x[17,0] +94 x[17,1] +87 x[17,2] +61 x[17,3] +15 x[17,4] +92 x[17,5] +18 x[17,6] +82 x[17,7] +5 x[17,8] +29 x[17,9] +8 x[18,0] +56 x[18,1] +3 x[18,2] +11 x[18,3] +71 x[18,4] +18 x[18,5] +81 x[18,6] +77 x[18,7] +33 x[18,8] +76 x[18,9] +65 x[19,0] +57 x[19,1] +8 x[19,2] +13 x[19,3] +19 x[19,4] +32 x[19,5] +89 x[19,6] +4 x[19,7] +25 x[19,8] +22 x[19,9] +329 y[0] +144 y[1] +408 y[2] +202 y[3] +369 y[4] +440 y[5] +195 y[6] +162 y[7] +174 y[8] +197 y[9] 
Subject to
 auto_c_000000000: +1 x[0,0] +1 x[0,1] +1 x[0,2] +1 x[0,3] +1 x[0,4] +1 x[0,5] +1 x[0,6] +1 x[0,7] +1 x[0,8] +1 x[0,9]  = 1
 auto_c_000000001: +1 x[1,0] +1 x[1,1] +1 x[1,2] +1 x[1,3] +1 x[1,4] +1 x[1,5] +1 x[1,6] +1 x[1,7] +1 x[1,8] +1 x[1,9]  = 1
 auto_c_000000002: +1 x[2,0] +1 x[2,1] +1 x[2,2] +1 x[2,3] +1 x[2,4] +1 x[2,5] +1 x[2,6] +1 x[2,7] +1 x[2,8] +1 x[2,9]  = 1
 auto_c_000000003: +1 x[3,0] +1 x[3,1] +1 x[3,2] +1 x[3,3] +1 x[3,4] +1 x[3,5] +1 x[3,6] +1 x[3,7] +1 x[3,8] +1 x[3,9]  = 1
 auto_c_000000004: +1 x[4,0] +1 x[4,1] +1 x[4,2] +1 x[4,3] +1 x[4,4] +1 x[4,5] +1 x[4,6] +1 x[4,7] +1 x[4,8] +1 x[4,9]  = 1
 auto_c_000000005: +1 x[5,0] +1 x[5,1] +1 x[5,2] +1 x[5,3] +1 x[5,4] +1 x[5,5] +1 x[5,6] +1 x[5,7] +1 x[5,8] +1 x[5,9]  = 1
 auto_c_000000006: +1 x[6,0] +1 x[6,1] +1 x[6,2] +1 x[6,3] +1 x[6,4] +1 x[6,5] +1 x[6,6] +1 x[6,7] +1 x[6,8] +1 x[6,9]  = 1
 auto_c_000000007: +1 x[7,0] +1 x[7,1] +1 x[7,2] +1 x[7,3] +1 x[7,4] +1 x[7,5] +1 x[7,6] +1 x[7,7] +1 x[7,8] +1 x[7,9]  = 1
 auto_c_000000008: +1 x[8,0] +1 x[8,1] +1 x[8,2] +1 x[8,3] +1 x[8,4] +1 x[8,5] +1 x[8,6] +1 x[8,7] +1 x[8,8] +1 x[8,9]  = 1
 auto_c_000000009: +1 x[9,0] +1 x[9,1] +1 x[9,2] +1 x[9,3] +1 x[9,4] +1 x[9,5] +1 x[9,6] +1 x[9,7] +1 x[9,8] +1 x[9,9]  = 1
 auto_c_000000010: +1 x[10,0] +1 x[10,1] +1 x[10,2] +1 x[10,3] +1 x[10,4] +1 x[10,5] +1 x[10,6] +1 x[10,7] +1 x[10,8] +1 x[10,9]  = 1
 auto_c_000000011: +1 x[11,0] +1 x[11,1] +1 x[11,2] +1 x[11,3] +1 x[11,4] +1 x[11,5] +1 x[11,6] +1 x[11,7] +1 x[11,8] +1 x[11,9]  = 1
 auto_c_000000012: +1 x[12,0] +1 x[12,1] +1 x[12,2] +1 x[12,3] +1 x[12,4] +1 x[12,5] +1 x[12,6] +1 x[12,7] +1 x[12,8] +1 x[12,9]  = 1
 auto_c_000000013: +1 x[13,0] +1 x[13,1] +1 x[13,2] +1 x[13,3] +1 x[13,4] +1 x[13,5] +1 x[13,6] +1 x[13,7] +1 x[13,8] +1 x[13,9]  = 1
 auto_c_000000014: +1 x[14,0] +1 x[14,1] +1 x[14,2] +1 x[14,3] +1 x[14,4] +1 x[14,5] +1 x[14,6] +1 x[14,7] +1 x[14,8] +1 x[14,9]  = 1
 auto_c_000000015: +1 x[15,0] +1 x[15,1] +1 x[15,2] +1 x[15,3] +1 x[15,4] +1 x[15,5] +1 x[15,6] +1 x[15,7] +1 x[15,8] +1 x[15,9]  = 1
 auto_c_000000016: +1 x[16,0] +1 x[16,1] +1 x[16,2] +1 x[16,3] +1 x[16,4] +1 x[16,5] +1 x[16,6] +1 x[16,7] +1 x[16,8] +1 x[16,9]  = 1
 auto_c_000000017: +1 x[17,0] +1 x[17,1] +1 x[17,2] +1 x[17,3] +1 x[17,4] +1 x[17,5] +1 x[17,6] +1 x[17,7] +1 x[17,8] +1 x[17,9]  = 1
 auto_c_000000018: +1 x[18,0] +1 x[18,1] +1 x[18,2] +1 x[18,3] +1 x[18,4] +1 x[18,5] +1 x[18,6] +1 x[18,7] +1 x[18,8] +1 x[18,9]  = 1
 auto_c_000000019: +1 x[19,0] +1 x[19,1] +1 x[19,2] +1 x[19,3] +1 x[19,4] +1 x[19,5] +1 x[19,6] +1 x[19,7] +1 x[19,8] +1 x[19,9]  = 1
 auto_c_000000020: +12 x[0,0] +18 x[1,0] +18 x[2,0] +19 x[3,0] +26 x[4,0] +21 x[5,0] +18 x[6,0] +19 x[7,0] +18 x[8,0] +11 x[9,0] +22 x[10,0] +21 x[11,0] +13 x[12,0] +19 x[13,0] +13 x[14,0] +14 x[15,0] +22 x[16,0] +17 x[17,0] +27 x[18,0] +28 x[19,0] -59 y[0]  <= 0
 auto_c_000000021: +12 x[0,1] +18 x[1,1] +18 x[2,1] +19 x[3,1] +26 x[4,1] +21 x[5,1] +18 x[6,1] +19 x[7,1] +18 x[8,1] +11 x[9,1] +22 x[10,1] +21 x[11,1] +13 x[12,1] +19 x[13,1] +13 x[14,1] +14 x[15,1] +22 x[16,1] +17 x[17,1] +27 x[18,1] +28 x[19,1] -48 y[1]  <= 0
 auto_c_000000022: +12 x[0,2] +18 x[1,2] +18 x[2,2] +19 x[3,2] +26 x[4,2] +21 x[5,2] +18 x[6,2] +19 x[7,2] +18 x[8,2] +11 x[9,2] +22 x[10,2] +21 x[11,2] +13 x[12,2] +19 x[13,2] +13 x[14,2] +14 x[15,2] +22 x[16,2] +17 x[17,2] +27 x[18,2] +28 x[19,2] -65 y[2]  <= 0
 auto_c_000000023: +12 x[0,3] +18 x[1,3] +18 x[2,3] +19 x[3,3] +26 x[4,3] +21 x[5,3] +18 x[6,3] +19 x[7,3] +18 x[8,3] +11 x[9,3] +22 x[10,3] +21 x[11,3] +13 x[12,3] +19 x[13,3] +13 x[14,3] +14 x[15,3] +22 x[16,3] +17 x[17,3] +27 x[18,3] +28 x[19,3] -43 y[3]  <= 0
 auto_c_000000024: +12 x[0,4] +18 x[1,4] +18 x[2,4] +19 x[3,4] +26 x[4,4] +21 x[5,4] +18 x[6,4] +19 x[7,4] +18 x[8,4] +11 x[9,4] +22 x[10,4] +21 x[11,4] +13 x[12,4] +19 x[13,4] +13 x[14,4] +14 x[15,4] +22 x[16,4] +17 x[17,4] +27 x[18,4] +28 x[19,4] -64 y[4]  <= 0
 auto_c_000000025: +12 x[0,5] +18 x[1,5] +18 x[2,5] +19 x[3,5] +26 x[4,5] +21 x[5,5] +18 x[6,5] +19 x[7,5] +18 x[8,5] +11 x[9,5] +22 x[10,5] +21 x[11,5] +13 x[12,5] +19 x[13,5] +13 x[14,5] +14 x[15,5] +22 x[16,5] +17 x[17,5] +27 x[18,5] +28 x[19,5] -65 y[5]  <= 0
 auto_c_000000026: +12 x[0,6] +18 x[1,6] +18 x[2,6] +19 x[3,6] +26 x[4,6] +21 x[5,6] +18 x[6,6] +19 x[7,6] +18 x[8,6] +11 x[9,6] +22 x[10,6] +21 x[11,6] +13 x[12,6] +19 x[13,6] +13 x[14,6] +14 x[15,6] +22 x[16,6] +17 x[17,6] +27 x[18,6] +28 x[19,6] -57 y[6]  <= 0
 auto_c_000000027: +12 x[0,7] +18 x[1,7] +18 x[2,7] +19 x[3,7] +26 x[4,7] +21 x[5,7] +18 x[6,7] +19 x[7,7] +18 x[8,7] +11 x[9,7] +22 x[10,7] +21 x[11,7] +13 x[12,7] +19 x[13,7] +13 x[14,7] +14 x[15,7] +22 x[16,7] +17 x[17,7] +27 x[18,7] +28 x[19,7] -49 y[7]  <= 0
 auto_c_000000028: +12 x[0,8] +18 x[1,8] +18 x[2,8] +19 x[3,8] +26 x[4,8] +21 x[5,8] +18 x[6,8] +19 x[7,8] +18 x[8,8] +11 x[9,8] +22 x[10,8] +21 x[11,8] +13 x[12,8] +19 x[13,8] +13 x[14,8] +14 x[15,8] +22 x[16,8] +17 x[17,8] +27 x[18,8] +28 x[19,8] -58 y[8]  <= 0
 auto_c_000000029: +12 x[0,9] +18 x[1,9] +18 x[2,9] +19 x[3,9] +26 x[4,9] +21 x[5,9] +18 x[6,9] +19 x[7,9] +18 x[8,9] +11 x[9,9] +22 x[10,9] +21 x[11,9] +13 x[12,9] +19 x[13,9] +13 x[14,9] +14 x[15,9] +22 x[16,9] +17 x[17,9] +27 x[18,9] +28 x[19,9] -30 y[9]  <= 0
Bounds
 0 <= x[0,0] <= 1
 0 <= x[0,1] <= 1
 0 <= x[0,2] <= 1
 0 <= x[0,3] <= 1
 0 <= x[0,4] <= 1
 0 <= x[0,5] <= 1
 0 <= x[0,6] <= 1
 0 <= x[0,7] <= 1
 0 <= x[0,8] <= 1
 0 <= x[0,9] <= 1
 0 <= x[1,0] <= 1
 0 <= x[1,1] <= 1
 0 <= x[1,2] <= 1
 0 <= x[1,3] <= 1
 0 <= x[1,4] <= 1
 0 <= x[1,5] <= 1
 0 <= x[1,6] <= 1
 0 <= x[1,7] <= 1
 0 <= x[1,8] <= 1
 0 <= x[1,9] <= 1
 0 <= x[2,0] <= 1
 0 <= x[2,1] <= 1
 0 <= x[2,2] <= 1
 0 <= x[2,3] <= 1
 0 <= x[2,4] <= 1
 0 <= x[2,5] <= 1
 0 <= x[2,6] <= 1
 0 <= x[2,7] <= 1
 0 <= x[2,8] <= 1
 0 <= x[2,9] <= 1
 0 <= x[3,0] <= 1
 0 <= x[3,1] <= 1
 0 <= x[3,2] <= 1
 0 <= x[3,3] <= 1
 0 <= x[3,4] <= 1
 0 <= x[3,5] <= 1
 0 <= x[3,6] <= 1
 0 <= x[3,7] <= 1
 0 <= x[3,8] <= 1
 0 <= x[3,9] <= 1
 0 <= x[4,0] <= 1
 0 <= x[4,1] <= 1
 0 <= x[4,2] <= 1
 0 <= x[4,3] <= 1
 0 <= x[4,4] <= 1
 0 <= x[4,5] <= 1
 0 <= x[4,6] <= 1
 0 <= x[4,7] <= 1
 0 <= x[4,8] <= 1
 0 <= x[4,9] <= 1
 0 <= x[5,0] <= 1
 0 <= x[5,1] <= 1
 0 <= x[5,2] <= 1
 0 <= x[5,3] <= 1
 0 <= x[5,4] <= 1
 0 <= x[5,5] <= 1
 0 <= x[5,6] <= 1
 0 <= x[5,7] <= 1
 0 <= x[5,8] <= 1
 0 <= x[5,9] <= 1
 0 <= x[6,0] <= 1
 0 <= x[6,1] <= 1
 0 <= x[6,2] <= 1
 0 <= x[6,3] <= 1
 0 <= x[6,4] <= 1
 0 <= x[6,5] <= 1
 0 <= x[6,6] <= 1
 0 <= x[6,7] <= 1
 0 <= x[6,8] <= 1
 0 <= x[6,9] <= 1
 0 <= x[7,0] <= 1
 0 <= x[7,1] <= 1
 0 <= x[7,2] <= 1
 0 <= x[7,3] <= 1
 0 <= x[7,4] <= 1
 0 <= x[7,5] <= 1
 0 <= x[7,6] <= 1
 0 <= x[7,7] <= 1
 0 <= x[7,8] <= 1
 0 <= x[7,9] <= 1
 0 <= x[8,0] <= 1
 0 <= x[8,1] <= 1
 0 <= x[8,2] <= 1
 0 <= x[8,3] <= 1
 0 <= x[8,4] <= 1
 0 <= x[8,5] <= 1
 0 <= x[8,6] <= 1
 0 <= x[8,7] <= 1
 0 <= x[8,8] <= 1
 0 <= x[8,9] <= 1
 0 <= x[9,0] <= 1
 0 <= x[9,1] <= 1
 0 <= x[9,2] <= 1
 0 <= x[9,3] <= 1
 0 <= x[9,4] <= 1
 0 <= x[9,5] <= 1
 0 <= x[9,6] <= 1
 0 <= x[9,7] <= 1
 0 <= x[9,8] <= 1
 0 <= x[9,9] <= 1
 0 <= x[10,0] <= 1
 0 <= x[10,1] <= 1
 0 <= x[10,2] <= 1
 0 <= x[10,3] <= 1
 0 <= x[10,4] <= 1
 0 <= x[10,5] <= 1
 0 <= x[10,6] <= 1
 0 <= x[10,7] <= 1
 0 <= x[10,8] <= 1
 0 <= x[10,9] <= 1
 0 <= x[11,0] <= 1
 0 <= x[11,1] <= 1
 0 <= x[11,2] <= 1
 0 <= x[11,3] <= 1
 0 <= x[11,4] <= 1
 0 <= x[11,5] <= 1
 0 <= x[11,6] <= 1
 0 <= x[11,7] <= 1
 0 <= x[11,8] <= 1
 0 <= x[11,9] <= 1
 0 <= x[12,0] <= 1
 0 <= x[12,1] <= 1
 0 <= x[12,2] <= 1
 0 <= x[12,3] <= 1
 0 <= x[12,4] <= 1
 0 <= x[12,5] <= 1
 0 <= x[12,6] <= 1
 0 <= x[12,7] <= 1
 0 <= x[12,8] <= 1
 0 <= x[12,9] <= 1
 0 <= x[13,0] <= 1
 0 <= x[13,1] <= 1
 0 <= x[13,2] <= 1
 0 <= x[13,3] <= 1
 0 <= x[13,4] <= 1
 0 <= x[13,5] <= 1
 0 <= x[13,6] <= 1
 0 <= x[13,7] <= 1
 0 <= x[13,8] <= 1
 0 <= x[13,9] <= 1
 0 <= x[14,0] <= 1
 0 <= x[14,1] <= 1
 0 <= x[14,2] <= 1
 0 <= x[14,3] <= 1
 0 <= x[14,4] <= 1
 0 <= x[14,5] <= 1
 0 <= x[14,6] <= 1
 0 <= x[14,7] <= 1
 0 <= x[14,8] <= 1
 0 <= x[14,9] <= 1
 0 <= x[15,0] <= 1
 0 <= x[15,1] <= 1
 0 <= x[15,2] <= 1
 0 <= x[15,3] <= 1
 0 <= x[15,4] <= 1
 0 <= x[15,5] <= 1
 0 <= x[15,6] <= 1
 0 <= x[15,7] <= 1
 0 <= x[15,8] <= 1
 0 <= x[15,9] <= 1
 0 <= x[16,0] <= 1
 0 <= x[16,1] <= 1
 0 <= x[16,2] <= 1
 0 <= x[16,3] <= 1
 0 <= x[16,4] <= 1
 0 <= x[16,5] <= 1
 0 <= x[16,6] <= 1
 0 <= x[16,7] <= 1
 0 <= x[16,8] <= 1
 0 <= x[16,9] <= 1
 0 <= x[17,0] <= 1
 0 <= x[17,1] <= 1
 0 <= x[17,2] <= 1
 0 <= x[17,3] <= 1
 0 <= x[17,4] <= 1
 0 <= x[17,5] <= 1
 0 <= x[17,6] <= 1
 0 <= x[17,7] <= 1
 0 <= x[17,8] <= 1
 0 <= x[17,9] <= 1
 0 <= x[18,0] <= 1
 0 <= x[18,1] <= 1
 0 <= x[18,2] <= 1
 0 <= x[18,3] <= 1
 0 <= x[18,4] <= 1
 0 <= x[18,5] <= 1
 0 <= x[18,6] <= 1
 0 <= x[18,7] <= 1
 0 <= x[18,8] <= 1
 0 <= x[18,9] <= 1
 0 <= x[19,0] <= 1
 0 <= x[19,1] <= 1
 0 <= x[19,2] <= 1
 0 <= x[19,3] <= 1
 0 <= x[19,4] <= 1
 0 <= x[19,5] <= 1
 0 <= x[19,6] <= 1
 0 <= x[19,7] <= 1
 0 <= x[19,8] <= 1
 0 <= x[19,9] <= 1
 0 <= y[0] <= 1
 0 <= y[1] <= 1
 0 <= y[2] <= 1
 0 <= y[3] <= 1
 0 <= y[4] <= 1
 0 <= y[5] <= 1
 0 <= y[6] <= 1
 0 <= y[7] <= 1
 0 <= y[8] <= 1
 0 <= y[9] <= 1
Binaries
 x[0,0]
 x[0,1]
 x[0,2]
 x[0,3]
 x[0,4]
 x[0,5]
 x[0,6]
 x[0,7]
 x[0,8]
 x[0,9]
 x[1,0]
 x[1,1]
 x[1,2]
 x[1,3]
 x[1,4]
 x[1,5]
 x[1,6]
 x[1,7]
 x[1,8]
 x[1,9]
 x[2,0]
 x[2,1]
 x[2,2]
 x[2,3]
 x[2,4]
 x[2,5]
 x[2,6]
 x[2,7]
 x[2,8]
 x[2,9]
 x[3,0]
 x[3,1]
 x[3,2]
 x[3,3]
 x[3,4]
 x[3,5]
 x[3,6]
 x[3,7]
 x[3,8]
 x[3,9]
 x[4,0]
 x[4,1]
 x[4,2]
 x[4,3]
 x[4,4]
 x[4,5]
 x[4,6]
 x[4,7]
 x[4,8]
 x[4,9]
 x[5,0]
 x[5,1]
 x[5,2]
 x[5,3]
 x[5,4]
 x[5,5]
 x[5,6]
 x[5,7]
 x[5,8]
 x[5,9]
 x[6,0]
 x[6,1]
 x[6,2]
 x[6,3]
 x[6,4]
 x[6,5]
 x[6,6]
 x[6,7]
 x[6,8]
 x[6,9]
 x[7,0]
 x[7,1]
 x[7,2]
 x[7,3]
 x[7,4]
 x[7,5]
 x[7,6]
 x[7,7]
 x[7,8]
 x[7,9]
 x[8,0]
 x[8,1]
 x[8,2]
 x[8,3]
 x[8,4]
 x[8,5]
 x[8,6]
 x[8,7]
 x[8,8]
 x[8,9]
 x[9,0]
 x[9,1]
 x[9,2]
 x[9,3]
 x[9,4]
 x[9,5]
 x[9,6]
 x[9,7]
 x[9,8]
 x[9,9]
 x[10,0]
 x[10,1]
 x[10,2]
 x[10,3]
 x[10,4]
 x[10,5]
 x[10,6]
 x[10,7]
 x[10,8]
 x[10,9]
 x[11,0]
 x[11,1]
 x[11,2]
 x[11,3]
 x[11,4]
 x[11,5]
 x[11,6]
 x[11,7]
 x[11,8]
 x[11,9]
 x[12,0]
 x[12,1]
 x[12,2]
 x[12,3]
 x[12,4]
 x[12,5]
 x[12,6]
 x[12,7]
 x[12,8]
 x[12,9]
 x[13,0]
 x[13,1]
 x[13,2]
 x[13,3]
 x[13,4]
 x[13,5]
 x[13,6]
 x[13,7]
 x[13,8]
 x[13,9]
 x[14,0]
 x[14,1]
 x[14,2]
 x[14,3]
 x[14,4]
 x[14,5]
 x[14,6]
 x[14,7]
 x[14,8]
 x[14,9]
 x[15,0]
 x[15,1]
 x[15,2]
 x[15,3]
 x[15,4]
 x[15,5]
 x[15,6]
 x[15,7]
 x[15,8]
 x[15,9]
 x[16,0]
 x[16,1]
 x[16,2]
 x[16,3]
 x[16,4]
 x[16,5]
 x[16,6]
 x[16,7]
 x[16,8]
 x[16,9]
 x[17,0]
 x[17,1]
 x[17,2]
 x[17,3]
 x[17,4]
 x[17,5]
 x[17,6]
 x[17,7]
 x[17,8]
 x[17,9]
 x[18,0]
 x[18,1]
 x[18,2]
 x[18,3]
 x[18,4]
 x[18,5]
 x[18,6]
 x[18,7]
 x[18,8]
 x[18,9]
 x[19,0]
 x[19,1]
 x[19,2]
 x[19,3]
 x[19,4]
 x[19,5]
 x[19,6]
 x[19,7]
 x[19,8]
 x[19,9]
 y[0]
 y[1]
 y[2]
 y[3]
 y[4]
 y[5]
 y[6]
 y[7]
 y[8]
 y[9]
End
